c Created with the Wolfram Language : www.wolfram.com
c 
p edge 90 387
e 2 6
e 5 12
e 10 12
e 5 14
e 9 14
e 7 15
e 14 17
e 15 18
e 8 20
e 20 21
e 16 22
e 17 23
e 16 24
e 21 24
e 18 27
e 20 27
e 21 27
e 22 27
e 6 28
e 7 29
e 17 29
e 21 29
e 1 30
e 7 30
e 17 30
e 26 30
e 9 31
e 20 31
e 22 31
e 30 31
e 2 32
e 7 32
e 14 32
e 24 32
e 26 32
e 27 32
e 18 33
e 2 34
e 10 34
e 12 34
e 30 34
e 6 35
e 12 35
e 27 35
e 18 36
e 24 36
e 1 37
e 4 37
e 5 37
e 12 37
e 22 37
e 35 37
e 9 38
e 10 38
e 16 38
e 25 38
e 31 38
e 6 39
e 15 39
e 24 39
e 28 39
e 35 39
e 38 39
e 7 40
e 8 40
e 11 40
e 25 40
e 31 40
e 5 41
e 7 41
e 11 41
e 20 41
e 24 41
e 4 42
e 18 42
e 22 42
e 23 42
e 25 42
e 29 42
e 30 42
e 1 43
e 19 43
e 30 43
e 34 43
e 4 44
e 29 44
e 32 44
e 35 44
e 37 44
e 40 44
e 26 45
e 43 45
e 4 46
e 13 46
e 43 46
e 3 47
e 7 47
e 14 47
e 27 47
e 32 47
e 36 47
e 16 48
e 20 48
e 33 48
e 37 48
e 4 49
e 9 49
e 14 49
e 15 49
e 20 49
e 26 49
e 28 49
e 29 49
e 3 50
e 13 50
e 14 50
e 28 50
e 29 50
e 3 51
e 8 51
e 18 51
e 19 51
e 29 51
e 36 51
e 38 51
e 6 52
e 16 52
e 17 52
e 29 52
e 36 52
e 3 53
e 13 53
e 18 53
e 19 53
e 52 53
e 5 54
e 11 54
e 22 54
e 41 54
e 5 55
e 21 55
e 25 55
e 29 55
e 53 55
e 1 56
e 17 56
e 24 56
e 35 56
e 38 56
e 42 56
e 45 56
e 54 56
e 11 57
e 15 57
e 28 57
e 56 57
e 12 58
e 15 58
e 22 58
e 38 58
e 16 59
e 19 59
e 26 59
e 43 59
e 44 59
e 47 59
e 54 59
e 4 60
e 55 60
e 3 61
e 30 61
e 33 61
e 35 61
e 43 61
e 9 62
e 15 62
e 16 62
e 27 62
e 40 62
e 60 62
e 4 63
e 9 63
e 23 63
e 44 63
e 55 63
e 56 63
e 61 63
e 2 64
e 6 64
e 7 64
e 37 64
e 47 64
e 52 64
e 3 65
e 44 65
e 45 65
e 47 65
e 56 65
e 7 66
e 18 66
e 32 66
e 38 66
e 48 66
e 50 66
e 52 66
e 17 67
e 33 67
e 35 67
e 37 67
e 51 67
e 65 67
e 2 68
e 26 68
e 32 68
e 38 68
e 39 68
e 46 68
e 48 68
e 52 68
e 64 68
e 23 69
e 24 69
e 30 69
e 38 69
e 55 69
e 2 70
e 19 70
e 25 70
e 33 70
e 46 70
e 57 70
e 15 71
e 30 71
e 40 71
e 54 71
e 55 71
e 58 71
e 6 72
e 11 72
e 16 72
e 23 72
e 26 72
e 51 72
e 71 72
e 8 73
e 16 73
e 24 73
e 30 73
e 33 73
e 37 73
e 53 73
e 54 73
e 55 73
e 70 73
e 3 74
e 8 74
e 16 74
e 26 74
e 30 74
e 46 74
e 61 74
e 3 75
e 6 75
e 37 75
e 38 75
e 47 75
e 59 75
e 63 75
e 68 75
e 69 75
e 72 75
e 9 76
e 14 76
e 18 76
e 47 76
e 54 76
e 57 76
e 61 76
e 62 76
e 64 76
e 16 77
e 27 77
e 40 77
e 47 77
e 57 77
e 65 77
e 67 77
e 70 77
e 2 78
e 4 78
e 16 78
e 31 78
e 42 78
e 48 78
e 51 78
e 56 78
e 63 78
e 64 78
e 71 78
e 6 79
e 9 79
e 18 79
e 29 79
e 45 79
e 57 79
e 8 80
e 10 80
e 23 80
e 26 80
e 29 80
e 36 80
e 59 80
e 36 81
e 39 81
e 44 81
e 13 82
e 14 82
e 26 82
e 45 82
e 46 82
e 6 83
e 13 83
e 27 83
e 48 83
e 69 83
e 81 83
e 10 84
e 14 84
e 31 84
e 32 84
e 33 84
e 37 84
e 67 84
e 70 84
e 2 85
e 7 85
e 47 85
e 72 85
e 75 85
e 82 85
e 16 86
e 20 86
e 25 86
e 26 86
e 33 86
e 40 86
e 55 86
e 63 86
e 79 86
e 16 87
e 20 87
e 22 87
e 26 87
e 51 87
e 58 87
e 64 87
e 77 87
e 85 87
e 31 88
e 32 88
e 39 88
e 40 88
e 44 88
e 63 88
e 65 88
e 69 88
e 73 88
e 85 88
e 9 89
e 10 89
e 23 89
e 33 89
e 59 89
e 63 89
e 69 89
e 71 89
e 82 89
e 87 89
e 5 90
e 10 90
e 35 90
e 39 90
e 60 90
e 69 90
e 73 90
e 79 90
e 82 90
